c WARNING: for repeatability, setting FPU to use double precision
d VARIABLES            138130       
d CONSTRAINTS          502920       
c ============================[ Problem Statistics ]=============================
c |                                                                             |
c |  Number of variables:        138130                                         |
c |  Number of clauses:          502920                                         |
c |  Parse time:                   0.09 s                                       |
c |                                                                             |
c ============================[ Search Statistics ]==============================
c | Conflicts |          ORIGINAL         |          LEARNT          | Progress |
c |           |    Vars  Clauses Literals |    Limit  Clauses Lit/Cl |          |
c ===============================================================================
c |       100 |  109163   428290  1076041 |   157039      100      7 | 20.971 % |
c |       250 |  109163   428290  1076041 |   172743      250      6 | 20.971 % |
c |       475 |  109163   428290  1076041 |   190017      475      9 | 20.971 % |
c |       812 |  109163   428290  1076041 |   209019      812      8 | 20.971 % |
c |      1318 |  109163   428290  1076041 |   229921     1318     12 | 20.971 % |
c |      2077 |  109163   428290  1076041 |   252913     2077     12 | 20.971 % |
c |      3216 |  109163   428290  1076041 |   278205     3216     13 | 20.971 % |
c |      4924 |  109163   428290  1076041 |   306025     4924     18 | 20.971 % |
c |      7486 |  109163   428290  1076041 |   336628     7486     32 | 20.971 % |
c |     11330 |  109163   428290  1076041 |   370291    11330     27 | 20.971 % |
c |     17096 |  109163   428290  1076041 |   407320    17096     30 | 20.971 % |
c |     25745 |  109159   428254  1075959 |   448052    25740     32 | 20.974 % |
c ===============================================================================
c restarts              : 126
c conflicts             : 36709          (2137 /sec)
c decisions             : 755750         (0.00 % random) (43998 /sec)
c propagations          : 115521281      (6725318 /sec)
c conflict literals     : 1448111        (11.05 % deleted)
d RESTARTS             126
d FAILURES             36709        
d NODES                755750       
d BACKTRACKS           755750       
d PROPAGATIONS         115521281    
d NOGOODSIZE           39.45 
d MEMORY               50.00 
d TIME                 17.1771 

s UNSATISFIABLE
